solution status: gap limit reached
objective value:                          34204.34129
y#2                                                 1 	(obj:5700)
y#3                                                 1 	(obj:5700)
y#41                                                1 	(obj:5700)
y#42                                                1 	(obj:5700)
y#45                                                1 	(obj:5700)
y#49                                                1 	(obj:5700)
x#1#42                                              1 	(obj:0.07667)
x#2#41                                              1 	(obj:0.07463)
x#3#42                                              1 	(obj:0.02754)
x#4#3                                               1 	(obj:0.06222)
x#5#2                                               1 	(obj:0.07378)
x#6#49                                              1 	(obj:0.03196)
x#7#3                                               1 	(obj:0.06086)
x#8#41                                              1 	(obj:0.1037)
x#9#42                                              1 	(obj:0.06171)
x#10#2                                              1 	(obj:0.03009)
x#11#2                                              1 	(obj:0.06137)
x#12#41                                             1 	(obj:0.09112)
x#13#3                                              1 	(obj:0.00204)
x#14#41                                             1 	(obj:0.10268)
x#15#41                                             1 	(obj:0.11985)
x#16#41                                             1 	(obj:0.06103)
x#17#49                                             1 	(obj:0.06664)
x#18#41                                             1 	(obj:0.08517)
x#19#45                                             1 	(obj:0.16932)
x#20#41                                             1 	(obj:0.1003)
x#21#45                                             1 	(obj:0.11577)
x#22#49                                             1 	(obj:0.04981)
x#23#41                                             1 	(obj:0.04131)
x#24#45                                             1 	(obj:0.00884)
x#25#49                                             1 	(obj:0.02057)
x#26#3                                              1 	(obj:0.06018)
x#27#42                                             1 	(obj:0.07038)
x#28#3                                              1 	(obj:0.04658)
x#29#49                                             1 	(obj:0.04556)
x#30#49                                             1 	(obj:0.02822)
x#31#2                                              1 	(obj:0.02805)
x#32#42                                             1 	(obj:0.09554)
x#33#2                                              1 	(obj:0.0612)
x#34#2                                              1 	(obj:0.03621)
x#35#49                                             1 	(obj:0.02737)
x#36#45                                             1 	(obj:0.17969)
x#37#49                                             1 	(obj:0.0119)
x#38#42                                             1 	(obj:0.05593)
x#39#42                                             1 	(obj:0.04879)
x#40#41                                             1 	(obj:0.08449)
x#41#3                                              1 	(obj:0.06171)
x#42#49                                             1 	(obj:0.0153)
x#43#3                                              1 	(obj:0.06018)
x#44#49                                             1 	(obj:0.00918)
x#45#2                                              1 	(obj:0.07582)
x#46#45                                             1 	(obj:0.04318)
x#47#2                                              1 	(obj:0.03893)
x#48#42                                             1 	(obj:0.03281)
x#49#45                                             1 	(obj:0.1377)
x#50#45                                             1 	(obj:0.1836)
x#51#41                                             1 	(obj:0.04165)
x#52#2                                              1 	(obj:0.05593)
x#53#42                                             1 	(obj:0.02873)
x#54#3                                              1 	(obj:0.08041)
x#55#2                                              1 	(obj:0.0595)
x#56#41                                             1 	(obj:0.08721)
x#57#45                                             1 	(obj:0.12546)
x#58#42                                             1 	(obj:0.04114)
x#59#42                                             1 	(obj:0.04403)
x#60#3                                              1 	(obj:0.0629)
x#61#49                                             1 	(obj:0.05559)
x#62#3                                              1 	(obj:0.05406)
x#63#2                                              1 	(obj:0.06664)
x#64#2                                              1 	(obj:0.05984)
x#65#3                                              1 	(obj:0.07106)
x#66#45                                             1 	(obj:0.03179)
x#67#3                                              1 	(obj:0.06239)
x#68#45                                             1 	(obj:0.02975)
x#69#2                                              1 	(obj:0.02805)
x#70#42                                             1 	(obj:0.01768)
